7397985.0
1288
1 3 5 7 10 11 13 14 16 17 18 19 20 21 22 23 27 30 31 33 36 38 39 43 44 45 46 52 53 54 56 58 59 63 64 66 68 69 73 77 79 80 81 82 84 85 86 87 89 94 95 96 98 104 106 109 117 119 120 123 124 125 127 128 130 131 133 138 142 148 149 150 151 152 155 157 161 163 167 168 169 171 175 177 180 181 182 183 184 185 186 188 194 195 197 198 